7

8
7
1 1 0 
2 2 0 1
3 3 1 3 4
4 4 2 3 4 5
3 3 3 4 6
2 2 5 6
1 1 7

4
3
5 2 0 1
7 2 1 2 
1 3 1 2 3

4
4
1 2 0 1
9 2 0 3
3 2 0 2
4 2 0 3

4
4
1 2 0 2
2 2 0 3
3 2 1 2
4 2 1 3

10
5
5 5 0 1 2 3 4
6 6 0 1 2 7 8 9 
1 3 3 4 6
3 3 4 5 6
2 5 5 6 7 8 9

12
6
6 6 0 1 2 3 4 5 
4 4 0 3 6 9                 
5 5 1 4 6 7 10 
4 4 2 5 8 11
4 4 4 5 7 8 
2 2 9 10
  
8
5
3 3 0 1 2
3 3 0 3 4
4 4 2 3 5 6
3 3 1 5 7
3 3 4 6 7
